%%
% Autogenerated by /opt/prj/battleships-ai/src/server/solver.py, instance 4 10x10 [7] #2 <f1n6zm5zj5a>
% Source: https://www.puzzle-battleships.com/?size=4
%%

size = 10;
hints_num = 4;
hints = [| 1, 7 | 3, 2 | 7, 2 | 10, 9 |];
ships_num = 10;

constr_rows = [1, 0, 2, 1, 2, 4, 3, 2, 2, 3];
constr_cols = [2, 4, 2, 3, 0, 4, 1, 2, 2, 0];

given_ships = [|
<>, <>, <>, <>, 1, |
<>, <>, <>, <>, 1, |
<>, <>, <>, <>, 1, |
<>, <>, <>, <>, 1, |
<>, <>, <>, <>, 2, |
<>, <>, <>, <>, 2, |
<>, <>, <>, <>, 2, |
<>, <>, <>, <>, 3, |
<>, <>, <>, <>, 3, |
<>, <>, <>, <>, 4  |];

